NAME: ACTUAL_TOURS/amz0525
TYPE: TOUR
COMMENT: RouteID_37bdc14b-80f5-47bb-a707-3d43f1111937
DIMENSION: 138
TOUR_SECTION
67
79
78
26
24
87
92
6
7
2
116
31
37
3
98
11
111
105
135
45
83
28
129
29
120
23
131
41
138
56
30
89
109
70
121
108
44
90
123
91
57
5
49
132
93
55
126
107
61
128
63
68
127
40
84
80
16
51
18
75
102
134
76
96
33
14
35
130
74
1
95
64
43
117
118
104
8
20
12
122
114
9
66
94
21
50
4
115
86
25
58
99
101
36
47
15
59
27
32
125
112
48
97
69
124
10
103
119
38
34
13
137
88
133
46
62
42
100
54
17
106
60
52
71
81
136
22
19
85
39
73
53
77
65
72
110
113
82
-1
EOF
